 vasp.5.3.3 18Dez12 (build May 06 2013 11:43:31) complex

 executed on             LinuxIFC date 2017.02.07  15:29:18

 INCAR:
 POTCAR:   PAW_GGA Si 05Jan2001
 POTCAR:   PAW_GGA O 05Jan2001
 POTCAR:   PAW_GGA H 07Jul1998

 POTCAR:   PAW_GGA Si 05Jan2001
   VRHFIN =Si: s2p2

   TITEL  = PAW_GGA Si 05Jan2001
   POMASS =   28.085; ZVAL   =    4.000    mass and valenz
   ENMAX  =  245.435; ENMIN  =  184.076 eV
   QCUT   =   -4.247; QGAM   =    8.494    optimization parameters

   Description
     l     E      TYP  RCUT    TYP  RCUT
     0   .000     23  1.900
     0   .000     23  1.900
     1   .000     23  1.900
     1   .000     23  1.900
     2   .000      7  1.900

 POTCAR:   PAW_GGA O 05Jan2001
   VRHFIN =O: s2p4

   TITEL  = PAW_GGA O 05Jan2001
   POMASS =   16.000; ZVAL   =    6.000    mass and valenz
   ENMAX  =  400.000; ENMIN  =  300.000 eV
   QCUT   =   -5.520; QGAM   =   11.040    optimization parameters

[...]

 POTCAR:   PAW_GGA H 07Jul1998
   VRHFIN =H: ultrasoft test

   TITEL  = PAW_GGA H 07Jul1998
   POMASS =    1.000; ZVAL   =    1.000    mass and valenz
   ENMAX  =  250.000; ENMIN  =  200.000 eV
   QCUT   =   -5.749; QGAM   =   11.498    optimization parameters

   Description
     l     E      TYP  RCUT    TYP  RCUT
     0   .000     23  1.100
     0   .500     23  1.100
     1  -.300     23  1.100

 Optimization of the real space projectors (new method)

 maximal supplied QI-value         = 19.84
 optimisation between [QCUT,QGAM] = [ 10.12, 20.44] = [ 28.68,116.96] Ry
 Optimized for a Real-space Cutoff    1.23 Angstroem

   l    n(q)    QCUT    max X(q) W(low)/X(q) W(high)/X(q)  e(spline)
   0      7    10.119     8.672    0.24E-04    0.14E-04    0.43E-08
   0      7    10.119   105.657    0.57E-04    0.22E-03    0.45E-07
   1      7    10.119     5.870    0.36E-04    0.74E-05    0.14E-07
   1      7    10.119    73.136    0.34E-03    0.49E-03    0.11E-06
 Optimization of the real space projectors (new method)

[...]

   l    n(q)    QCUT    max X(q) W(low)/X(q) W(high)/X(q)  e(spline)
   0      8    10.150     4.138    0.54E-04    0.57E-04    0.73E-07
   0      8    10.150     8.500    0.47E-03    0.69E-03    0.22E-06
   1      7    10.150     2.482    0.11E-03    0.90E-04    0.31E-07
   1      7    10.150     3.878    0.45E-03    0.49E-03    0.15E-06
 Optimization of the real space projectors (new method)

 maximal supplied QI-value         = 34.20
 optimisation between [QCUT,QGAM] = [  9.92, 20.18] = [ 27.55,114.04] Ry
 Optimized for a Real-space Cutoff    1.26 Angstroem

   l    n(q)    QCUT    max X(q) W(low)/X(q) W(high)/X(q)  e(spline)
   0      8     9.919     4.435    0.80E-04    0.66E-04    0.51E-07
   0      8     9.919    16.011    0.48E-03    0.23E-03    0.28E-06
   1      7     9.919     4.617    0.17E-03    0.74E-03    0.30E-06
 PAW_GGA Si 05Jan2001                   :
 PAW_GGA O 05Jan2001                    :
 PAW_GGA H 07Jul1998                    :

 POSCAR: H O Si
  positions in direct lattice
  velocities in cartesian coordinates
 exchange correlation table for  LEXCH =        7
   RHO(1)=    0.500       N(1)  =     2000
   RHO(2)=  100.500       N(2)  =     4000

 ion  position               nearest neighbor table
   1  0.354  0.757  0.233-  32 1.38  37 1.41  58 1.80  28 2.35   3 2.62  14 2.72
   2  0.346  0.410  0.200-  68 1.66  40 1.66  55 1.67  67 1.69   6 2.92  14 3.10
   3  0.258  0.584  0.282-  61 1.63  55 1.64  41 1.65  32 1.66   1 2.62   5 2.85  19 3.12
   4  0.869  0.973  0.128-  64 1.63  79 1.63  42 1.64  46 1.65  27 2.81
   5  0.080  0.538  0.351-  30 1.60  60 1.64  73 1.66  41 1.66   3 2.85  24 2.95  13 3.13
   6  0.614  0.390  0.213-  31 1.63  68 1.64  43 1.66  34 1.67   2 2.92  20 3.08
   7  0.841  0.245  0.170-  81 1.63  42 1.64  72 1.65  43 1.67  22 3.01
   8  0.649  0.234  0.426-  44 1.60  36 1.64  62 1.66  82 1.67  18 2.94  15 2.98  10 3.09
   9  0.789  0.863  0.345-  76 1.62  33 1.63  39 1.64  35 1.65  16 2.77  25 3.08
  10  0.752  0.317  0.334-  44 1.60  57 1.63  65 1.66  59 1.67  20 2.94  13 2.95   8 3.09
  11  0.210  0.774  0.398-  84 1.63  60 1.64  48 1.65  38 1.67  19 3.03
  12  0.730  0.656  0.216-  31 1.62  52 1.64  56 1.64  29 1.64  27 2.84  16 3.05
  13  0.792  0.570  0.363-  30 1.60  47 1.63  39 1.64  59 1.68  10 2.95   5 3.13  15 3.14
  14  0.249  0.651  0.160-  80 1.64  51 1.64  40 1.66  37 1.67   1 2.72   2 3.10
  15  0.599  0.498  0.437-  50 1.63  47 1.63  82 1.66  49 1.70   8 2.98  13 3.14
  16  0.593  0.772  0.295-  58 1.64  56 1.64  53 1.64  35 1.64   9 2.77  12 3.05  19 3.13
  17  0.991  0.772  0.189-  51 1.62  74 1.64  52 1.65  46 1.65  25 2.88
  18  0.395  0.199  0.391-  85 1.62  54 1.66  36 1.67  45 1.67   8 2.94
  19  0.431  0.629  0.364-  53 1.61  61 1.64  48 1.64  49 1.66  11 3.03   3 3.12  16 3.13
  20  0.521  0.233  0.291-  66 1.65  45 1.65  34 1.67  65 1.68  10 2.94   6 3.08  21 3.14
  21  0.314  0.121  0.229-  69 1.62  66 1.67  28 1.73  67 1.73  20 3.14
  22  0.031  0.193  0.242-  69 1.63  71 1.63  75 1.63  72 1.63  24 2.89   7 3.01  25 3.12
  23  0.143  0.050  0.384-  70 1.64  54 1.65  38 1.67  63 1.67  24 3.12
  24  0.043  0.278  0.333-  71 1.62  70 1.64  57 1.64  73 1.65  22 2.89   5 2.95  23 3.12
  25  0.901  0.943  0.255-  75 1.63  76 1.63  74 1.64  77 1.65  17 2.88   9 3.08  22 3.12
  26  0.871  0.033  0.429-  83 1.64  33 1.64  63 1.66  62 1.68
  27  0.674  0.891  0.183-  78 1.62  79 1.64  29 1.65  77 1.67   4 2.81  12 2.84
  28  0.320  0.966  0.223-  21 1.73   1 2.35
  29  0.642  0.745  0.186-  12 1.64  27 1.65
  30  0.938  0.539  0.367-   5 1.60  13 1.60
  31  0.698  0.513  0.214-  12 1.62   6 1.63
  32  0.271  0.728  0.267-   1 1.38   3 1.66
  33  0.812  0.946  0.389-   9 1.63  26 1.64
  34  0.539  0.358  0.260-  20 1.67   6 1.67
  35  0.650  0.887  0.323-  16 1.64   9 1.65
  36  0.521  0.154  0.419-   8 1.64  18 1.67
  37  0.351  0.739  0.186-   1 1.41  14 1.67
  38  0.160  0.902  0.374-  11 1.67  23 1.67
  39  0.793  0.717  0.356-   9 1.64  13 1.64
  40  0.271  0.502  0.165-   2 1.66  14 1.66
  41  0.111  0.567  0.297-   3 1.65   5 1.66
  42  0.855  0.102  0.155-   4 1.64   7 1.64
  43  0.710  0.280  0.197-   6 1.66   7 1.67
  44  0.678  0.306  0.380-  10 1.60   8 1.60
  45  0.441  0.233  0.339-  20 1.65  18 1.67
  46  0.966  0.870  0.148-  17 1.65   4 1.65
  47  0.722  0.545  0.410-  13 1.63  15 1.63
  48  0.358  0.743  0.388-  19 1.64  11 1.65
  49  0.479  0.528  0.402-  19 1.66  15 1.70
  50  0.575  0.577  0.482-  91 0.97  15 1.63
  51  0.110  0.687  0.178-  17 1.62  14 1.64
  52  0.875  0.679  0.200-  12 1.64  17 1.65
  53  0.544  0.678  0.334-  19 1.61  16 1.64
  54  0.286  0.094  0.397-  23 1.65  18 1.66
  55  0.308  0.480  0.247-   3 1.64   2 1.67
  56  0.702  0.698  0.268-  16 1.64  12 1.64
  57  0.894  0.272  0.344-  10 1.63  24 1.64
  58  0.488  0.822  0.260-  16 1.64   1 1.80
  59  0.745  0.467  0.325-  10 1.67  13 1.68
  60  0.141  0.650  0.380-   5 1.64  11 1.64
[...]
  79  0.731  0.911  0.133-   4 1.63  27 1.64
  80  0.252  0.686  0.106-  86 0.97  14 1.64
  81  0.839  0.336  0.126-  87 0.97   7 1.63
  82  0.616  0.357  0.456-  15 1.66   8 1.67
  83  0.885  0.955  0.475-  89 0.97  26 1.64
  84  0.196  0.786  0.452-  90 0.97  11 1.63
  85  0.334  0.318  0.414-  92 0.98  18 1.62
  86  0.333  0.691  0.092-  80 0.97
  87  0.906  0.328  0.105-  81 0.97
  88  0.539  0.009  0.218-  78 0.98
  89  0.810  0.936  0.492-  83 0.97
  90  0.122  0.825  0.464-  84 0.97
  91  0.514  0.641  0.481-  50 0.97
  92  0.372  0.397  0.407-  85 0.98
  93  0.956  0.942  0.061-  64 0.97

  LATTYP: Found a simple orthorhombic cell.
 ALAT       =    10.7200000000
 B/A-ratio  =     1.0298507463
 C/A-ratio  =     2.7854477612

  Lattice vectors:

 A1 = (  10.7200000000,   0.0000000000,   0.0000000000)
 A2 = (   0.0000000000,  11.0400000000,   0.0000000000)
 A3 = (   0.0000000000,   0.0000000000,  29.8600000000)

Analysis of symmetry for initial positions (statically):
 Subroutine PRICEL returns:
 Original cell was already a primitive cell.

 Routine SETGRP: Setting up the symmetry group for a
 simple orthorhombic supercell.

 Subroutine GETGRP returns: Found  1 space group operations
 (whereof  1 operations were pure point group operations)
 out of a pool of  8 trial point group operations.

The static configuration has the point symmetry C_1 .

Analysis of symmetry for dynamics (positions and initial velocities):
 Subroutine PRICEL returns:
 Original cell was already a primitive cell.

[...]

The dynamic configuration has the point symmetry C_1 .

Analysis of constrained symmetry for selective dynamics:
 Subroutine PRICEL returns:
 Original cell was already a primitive cell.

 Routine SETGRP: Setting up the symmetry group for a
 simple orthorhombic supercell.

 Subroutine GETGRP returns: Found  1 space group operations
 (whereof  1 operations were pure point group operations)
 out of a pool of  8 trial point group operations.

The constrained configuration has the point symmetry C_1 .

 irot  :   1
 isymop:   1   0   0
           0   1   0
           0   0   1

 gtrans:     0.0000000     0.0000000     0.0000000

 ptrans:     0.0000000     0.0000000     0.0000000
 rotmap:
 (   1->   1)  (   2->   2)  (   3->   3)  (   4->   4)  (   5->   5)
 (   6->   6)  (   7->   7)  (   8->   8)  (   9->   9)  (  10->  10)
 (  11->  11)  (  12->  12)  (  13->  13)  (  14->  14)  (  15->  15)
 (  16->  16)  (  17->  17)  (  18->  18)  (  19->  19)  (  20->  20)
 (  21->  21)  (  22->  22)  (  23->  23)  (  24->  24)  (  25->  25)
 (  26->  26)  (  27->  27)  (  28->  28)  (  29->  29)  (  30->  30)
 (  31->  31)  (  32->  32)  (  33->  33)  (  34->  34)  (  35->  35)
 (  36->  36)  (  37->  37)  (  38->  38)  (  39->  39)  (  40->  40)
 (  41->  41)  (  42->  42)  (  43->  43)  (  44->  44)  (  45->  45)
 (  46->  46)  (  47->  47)  (  48->  48)  (  49->  49)  (  50->  50)
 (  51->  51)  (  52->  52)  (  53->  53)  (  54->  54)  (  55->  55)
 (  56->  56)  (  57->  57)  (  58->  58)  (  59->  59)  (  60->  60)
 (  61->  61)  (  62->  62)  (  63->  63)  (  64->  64)  (  65->  65)
 (  66->  66)  (  67->  67)  (  68->  68)  (  69->  69)  (  70->  70)
 (  71->  71)  (  72->  72)  (  73->  73)  (  74->  74)  (  75->  75)
 (  76->  76)  (  77->  77)  (  78->  78)  (  79->  79)  (  80->  80)
 (  81->  81)  (  82->  82)  (  83->  83)  (  84->  84)  (  85->  85)
 (  86->  86)  (  87->  87)  (  88->  88)  (  89->  89)  (  90->  90)
 (  91->  91)  (  92->  92)  (  93->  93)

 KPOINTS: Automatic Mesh

Automatic generation of k-mesh.
Space group operators:
 irot       det(A)        alpha          n_x          n_y          n_z        tau_x        tau_y        tau_z
    1     1.000000     0.000000     1.000000     0.000000     0.000000     0.000000     0.000000     0.000000

 Subroutine IBZKPT returns following result:

 Found     20 irreducible k-points:

 Following reciprocal coordinates:
            Coordinates               Weight
  0.000000  0.000000  0.000000      1.000000
  0.166667  0.000000  0.000000      2.000000
  0.333333  0.000000  0.000000      2.000000
  0.500000  0.000000  0.000000      1.000000
  0.000000  0.166667  0.000000      2.000000
  0.166667  0.166667  0.000000      2.000000
[...]

 FORCES acting on ions
    electron-ion (+dipol)            ewald-force                    non-local-force                 convergence-correction
   -.427E+02 -.595E+02 0.297E+03   0.353E+02 0.568E+02 -.298E+03   0.205E+02 0.167E+02 0.307E+01   0.867E-03 -.549E-04 0.475E-03
   0.494E+02 0.545E+02 0.521E+03   -.461E+02 -.538E+02 -.522E+03   -.306E+01 -.244E+01 0.923E+00   0.876E-03 -.227E-03 -.120E-02
   0.333E+02 0.590E+01 0.797E+02   -.350E+02 -.928E+01 -.741E+02   0.376E+00 0.739E+00 -.358E+01   0.456E-02 0.122E-02 0.300E-02
   -.368E+02 -.222E+02 0.751E+03   0.344E+02 0.210E+02 -.753E+03   0.236E+01 0.140E+01 0.189E+01   0.127E-03 0.108E-03 -.181E-02
   -.855E+01 -.835E+01 -.348E+03   0.436E+01 0.820E+01 0.348E+03   0.421E+01 0.139E+00 0.845E+00   0.875E-03 0.328E-03 0.916E-02
   -.265E+02 0.160E+02 0.446E+03   0.243E+02 -.145E+02 -.447E+03   0.236E+01 -.186E+01 0.991E+00   0.676E-04 0.142E-02 0.105E-03
   0.517E+01 -.518E+02 0.599E+03   -.187E+01 0.536E+02 -.602E+03   -.320E+01 -.188E+01 0.332E+01   0.416E-03 0.952E-04 -.184E-02
   -.165E+02 0.781E+02 -.717E+03   0.143E+02 -.749E+02 0.710E+03   0.215E+01 -.323E+01 0.709E+01   -.171E-02 0.560E-02 0.617E-02
   -.119E+02 -.245E+02 -.351E+03   0.109E+02 0.251E+02 0.347E+03   0.106E+01 -.628E+00 0.364E+01   -.936E-04 -.325E-02 0.852E-02
   -.370E+02 0.124E+02 -.153E+03   0.353E+02 -.136E+02 0.159E+03   0.170E+01 0.116E+01 -.629E+01   -.357E-02 0.434E-02 0.111E-01
   0.925E+01 -.340E+02 -.542E+03   -.881E+01 0.331E+02 0.546E+03   -.445E+00 0.863E+00 -.413E+01   0.367E-02 0.255E-03 0.743E-02
   -.256E+02 0.850E+02 0.419E+03   0.234E+02 -.824E+02 -.418E+03   0.223E+01 -.261E+01 -.307E+00   -.261E-03 -.610E-03 0.616E-03
   -.189E+02 -.353E+02 -.372E+03   0.230E+02 0.334E+02 0.375E+03   -.411E+01 0.194E+01 -.307E+01   -.402E-02 -.640E-03 0.122E-01
   -.342E+01 0.264E+02 0.662E+03   0.147E+01 -.265E+02 -.667E+03   0.404E+00 -.118E+01 0.302E+01   0.108E-03 -.180E-05 -.215E-02
   0.804E+01 -.298E+02 -.714E+03   -.625E+01 0.331E+02 0.716E+03   -.180E+01 -.324E+01 -.265E+01   -.102E-02 -.517E-02 0.100E-02
   0.547E+02 -.356E+02 -.452E+02   -.541E+02 0.363E+02 0.448E+02   -.544E+00 -.696E+00 0.400E+00   -.124E-04 -.227E-02 0.711E-02
   -.471E+02 0.573E+02 0.523E+03   0.460E+02 -.542E+02 -.521E+03   0.554E+00 -.237E+01 -.208E+01   -.693E-03 0.541E-03 -.123E-02
   0.357E+02 0.712E+02 -.495E+03   -.366E+02 -.658E+02 0.498E+03   0.810E+00 -.543E+01 -.345E+01   0.762E-02 0.474E-02 0.966E-02
   0.117E+02 -.270E+02 -.427E+03   -.117E+02 0.295E+02 0.423E+03   -.167E-01 -.249E+01 0.299E+01   0.424E-02 -.191E-02 0.987E-02
   0.257E+02 0.520E+02 -.607E+01   -.259E+02 -.516E+02 0.452E+01   0.133E+00 -.401E+00 0.154E+01   -.853E-03 0.268E-02 0.683E-02
   -.590E+01 0.128E+02 0.375E+03   0.265E+01 -.199E+02 -.372E+03   0.335E+01 0.328E+01 -.308E+01   -.117E-02 0.246E-03 0.404E-04
   -.353E+02 -.269E+02 0.296E+03   0.361E+02 0.267E+02 -.295E+03   -.196E-01 -.200E+00 -.135E+01   0.401E-03 -.982E-03 -.511E-04
   -.302E+02 0.217E+02 -.485E+03   0.306E+02 -.195E+02 0.483E+03   -.418E+00 -.219E+01 0.141E+01   0.171E-03 -.274E-02 0.813E-02
   -.325E+02 0.270E+00 -.260E+03   0.313E+02 0.143E+00 0.256E+03   0.114E+01 -.415E+00 0.429E+01   -.223E-03 -.295E-02 0.655E-02
   -.333E+02 -.192E+02 0.143E+03   0.350E+02 0.188E+02 -.143E+03   -.163E+01 0.622E+00 0.130E+00   0.127E-03 -.194E-03 0.144E-02
   -.146E+00 -.749E+01 -.655E+03   0.512E-01 0.280E+01 0.657E+03   0.911E-01 0.468E+01 -.266E+01   -.424E-02 0.415E-03 0.717E-02
   0.720E+02 -.145E+02 0.564E+03   -.742E+02 0.172E+02 -.565E+03   0.174E+01 -.201E+01 0.150E+01   0.880E-03 -.476E-03 -.137E-02
   0.544E+02 0.285E+01 0.583E+03   -.563E+02 -.195E+02 -.586E+03   0.188E+01 0.183E+02 0.278E+01   -.152E-02 0.118E-03 -.748E-03
   0.136E+03 0.115E+03 0.958E+03   -.159E+03 -.126E+03 -.974E+03   0.238E+02 0.103E+02 0.166E+02   0.818E-03 -.120E-02 -.153E-02
   -.531E+02 -.165E+02 -.699E+03   0.533E+02 0.935E+01 0.712E+03   -.166E+00 0.712E+01 -.138E+02   -.713E-01 0.287E-02 0.244E-01
   -.831E+02 0.421E+02 0.658E+03   0.948E+02 -.477E+02 -.659E+03   -.117E+02 0.568E+01 0.134E+01   -.662E-03 0.460E-03 0.936E-03
   0.129E+03 -.128E+03 0.919E+02   -.161E+03 0.146E+03 -.586E+02   0.232E+02 -.222E+02 -.233E+02   0.328E-02 0.284E-02 0.369E-02
   0.644E+02 0.366E+02 -.780E+03   -.719E+02 -.363E+02 0.785E+03   0.753E+01 -.236E+00 -.429E+01   0.629E-02 0.161E-02 0.365E-01
   0.342E+02 -.509E+02 0.213E+03   -.447E+02 0.691E+02 -.204E+03   0.105E+02 -.182E+02 -.832E+01   -.152E-03 0.566E-02 0.517E-02
   0.136E+03 -.195E+03 -.348E+03   -.151E+03 0.225E+03 0.351E+03   0.158E+02 -.294E+02 -.323E+01   -.520E-02 -.771E-02 0.171E-02
   0.569E+02 0.237E+03 -.100E+04   -.593E+02 -.263E+03 0.101E+04   0.239E+01 0.261E+02 -.106E+02   0.127E-01 0.142E-01 0.142E-01
   -.780E+02 -.716E+02 0.933E+03   0.958E+02 0.853E+02 -.971E+03   -.181E+02 -.172E+02 0.272E+02   0.246E-03 -.463E-03 -.294E-02
   -.130E+02 0.142E+02 -.538E+03   0.651E+01 -.180E+02 0.519E+03   0.645E+01 0.381E+01 0.183E+02   0.969E-02 -.266E-02 0.125E-01
   -.724E+02 -.338E+02 -.599E+03   0.748E+02 0.342E+02 0.603E+03   -.243E+01 -.336E+00 -.354E+01   0.179E-02 -.287E-01 0.142E-01
   0.816E+02 0.135E+03 0.106E+04   -.921E+02 -.146E+03 -.107E+04   0.105E+02 0.123E+02 0.185E+02   0.378E-03 -.917E-05 -.335E-02
   0.143E+03 -.253E+02 0.705E+02   -.167E+03 0.268E+02 -.901E+02   0.249E+02 -.125E+01 0.194E+02   -.180E-02 0.996E-03 0.894E-02
   -.181E+02 -.827E+02 0.977E+03   0.180E+02 0.804E+02 -.970E+03   0.134E+00 0.229E+01 -.653E+01   0.732E-03 0.160E-03 -.266E-02
   0.455E+02 0.388E+02 0.737E+03   -.521E+02 -.550E+02 -.731E+03   0.655E+01 0.163E+02 -.606E+01   0.332E-03 0.158E-02 -.303E-02
   -.814E+01 0.210E+02 -.675E+03   -.204E+01 -.718E+01 0.676E+03   0.102E+02 -.138E+02 -.826E+00   -.290E-01 -.122E-01 0.768E-01
   0.919E+02 0.463E+02 -.340E+03   -.997E+02 -.396E+02 0.339E+03   0.780E+01 -.669E+01 0.104E+01   0.112E-04 0.468E-02 0.261E-01
   -.162E+03 0.263E+02 0.109E+04   0.177E+03 -.268E+02 -.110E+04   -.152E+02 0.219E+00 0.122E+02   -.264E-03 0.327E-03 -.236E-02
   -.126E+03 -.978E+02 -.100E+04   0.138E+03 0.103E+03 0.102E+04   -.122E+02 -.548E+01 -.132E+02   -.210E-02 -.133E-01 0.201E-02
   -.769E+02 -.166E+03 -.819E+03   0.920E+02 0.185E+03 0.828E+03   -.151E+02 -.187E+02 -.826E+01   0.673E-02 0.200E-02 0.658E-02
   0.105E+03 -.765E+01 -.865E+03   -.115E+03 -.577E+01 0.869E+03   0.994E+01 0.134E+02 -.329E+01   -.277E-02 -.204E-01 0.290E-01
   -.559E+01 -.115E+03 -.129E+04   0.274E+02 0.103E+03 0.132E+04   -.218E+02 0.118E+02 -.310E+02   0.178E-01 -.259E-01 -.147E-01
   0.432E+02 0.980E+02 0.847E+03   -.481E+02 -.110E+03 -.844E+03   0.578E+01 0.122E+02 -.299E+01   -.680E-03 0.557E-03 -.340E-02
   -.790E+02 0.204E+03 0.726E+03   0.860E+02 -.220E+03 -.729E+03   -.690E+01 0.159E+02 0.302E+01   -.119E-02 0.140E-03 -.142E-02
   0.470E+01 -.257E+02 -.387E+03   0.108E+02 0.173E+02 0.390E+03   -.155E+02 0.842E+01 -.341E+01   -.671E-02 -.768E-02 0.423E-01
   -.496E+02 0.966E+02 -.866E+03   0.575E+02 -.110E+03 0.878E+03   -.791E+01 0.134E+02 -.113E+02   0.132E-01 -.683E-02 0.489E-02
   0.436E+02 0.728E+02 0.335E+03   -.406E+02 -.843E+02 -.327E+03   -.305E+01 0.125E+02 -.726E+01   0.500E-02 -.146E-02 -.320E-03
   -.714E+02 0.876E+02 0.140E+03   0.878E+02 -.951E+02 -.126E+03   -.163E+02 0.738E+01 -.143E+02   0.469E-03 -.331E-02 0.656E-02
   -.280E+02 0.570E+02 -.464E+03   0.270E+02 -.691E+02 0.477E+03   0.106E+01 0.121E+02 -.126E+02   -.679E-02 -.411E-02 0.249E-01
   0.697E+02 -.110E+03 0.212E+03   -.730E+02 0.136E+03 -.222E+03   0.155E+01 -.278E+02 0.907E+01   0.253E-02 -.271E-02 0.645E-02
   -.798E+01 -.401E+02 -.115E+03   -.204E+01 0.494E+02 0.908E+02   0.100E+02 -.927E+01 0.243E+02   -.850E-02 0.770E-02 0.157E-01
   0.608E+02 -.717E+01 -.782E+03   -.638E+02 0.559E+01 0.790E+03   0.296E+01 0.158E+01 -.753E+01   0.246E-01 0.151E-01 0.112E-01
[...]
   0.130E+02 -.207E+02 0.127E+04   -.492E+02 0.265E+02 -.129E+04   0.363E+02 -.575E+01 0.168E+02   0.170E-03 -.118E-03 -.296E-02
   0.156E+02 -.158E+03 0.119E+04   -.463E+02 0.183E+03 -.119E+04   0.308E+02 -.248E+02 0.782E-01   0.221E-03 -.911E-04 -.269E-02
   -.483E+01 0.388E+02 -.128E+04   0.836E+00 -.419E+02 0.131E+04   0.400E+01 0.309E+01 -.278E+02   -.372E-02 -.716E-02 -.496E-02
   -.399E+02 0.103E+03 -.124E+04   0.768E+02 -.111E+03 0.125E+04   -.369E+02 0.841E+01 -.796E+01   0.975E-03 -.562E-02 0.364E-02
   -.324E+02 0.230E+02 -.123E+04   0.622E+02 -.381E+02 0.125E+04   -.298E+02 0.150E+02 -.192E+02   -.184E-01 0.104E-01 0.249E-01
   0.173E+03 -.392E+02 -.103E+04   -.204E+03 0.332E+02 0.105E+04   0.305E+02 0.608E+01 -.221E+02   0.231E-01 0.400E-01 0.117E-01
   -.804E+02 -.737E+01 0.238E+03   0.878E+02 0.796E+01 -.242E+03   -.740E+01 -.591E+00 0.389E+01   0.155E-03 -.124E-04 -.633E-03
   -.673E+02 -.109E+02 0.251E+03   0.733E+02 0.104E+02 -.256E+03   -.606E+01 0.528E+00 0.573E+01   0.299E-04 -.424E-04 -.530E-03
   0.196E+02 -.353E+02 0.324E+02   -.220E+02 0.376E+02 -.247E+02   0.194E+01 -.241E+01 -.766E+01   0.578E-04 -.135E-03 -.266E-03
   0.718E+02 0.308E+02 -.241E+03   -.786E+02 -.327E+02 0.245E+03   0.678E+01 0.193E+01 -.454E+01   -.841E-04 0.207E-04 0.647E-04
   0.622E+02 -.274E+02 -.230E+03   -.689E+02 0.310E+02 0.233E+03   0.669E+01 -.360E+01 -.345E+01   0.835E-03 -.519E-03 0.729E-03
   0.604E+02 -.793E+02 -.199E+03   -.661E+02 0.856E+02 0.199E+03   0.567E+01 -.622E+01 0.232E-01   -.475E-03 -.133E-03 -.109E-02
   0.166E+01 -.602E+02 -.143E+03   0.148E+01 0.675E+02 0.142E+03   -.315E+01 -.726E+01 0.143E+01   0.181E-02 -.374E-03 0.262E-02
   -.524E+02 0.569E+02 0.240E+03   0.567E+02 -.627E+02 -.244E+03   -.423E+01 0.579E+01 0.430E+01   0.208E-04 -.430E-04 -.656E-03
   -.503E+02 -.124E+02 0.204E+02   0.107E-12 -.433E-12 -.284E-13   0.502E+02 0.125E+02 -.210E+02   -.918E-02 -.185E-01 0.550E+00

 POSITION                                       TOTAL-FORCE (eV/Angst)
      3.79099      8.36000      6.95370        13.097488     13.975131      2.058264
      3.70507      4.52609      5.96176         0.284227     -1.680539     -0.401129
      2.76418      6.44940      8.42083        -1.317668     -2.637031      2.017693
      9.31587     10.74435      3.82899        -0.106485      0.125949     -0.019919
      0.85879      5.94128     10.48226         0.018031     -0.006987      0.000130
      6.58493      4.30194      6.35818         0.160550     -0.358518      0.140468
      9.01428      2.70189      5.06555         0.101280     -0.068867      0.040953
      6.95869      2.57895     12.71373         0.003636      0.010474     -0.007075
      8.45452      9.52551     10.30312         0.006740      0.001519     -0.003138
      8.06236      3.50352      9.98136         0.009510      0.004407     -0.013856
      2.24741      8.54712     11.87147        -0.002060     -0.006184     -0.003015
      7.82935      7.24644      6.46063         0.072169      0.032244      0.048307
      8.48863      6.29425     10.82675         0.012476      0.006411      0.009587
      2.66699      7.18817      4.76661        -1.547282     -1.238155     -2.120452
      6.42265      5.49352     13.05355        -0.011341      0.013408      0.001657
      6.35164      8.51902      8.81009         0.005496      0.005661      0.003048
     10.61884      8.52631      5.65219        -0.553516      0.731919      0.121840
      4.23352      2.19789     11.66793        -0.002225     -0.006088      0.003047
      4.61545      6.94028     10.87853        -0.010460      0.003191     -0.021950
      5.58747      2.57471      8.70388         0.002145      0.007026      0.005565
      3.37095      1.33828      6.85102         0.106538     -3.791363     -0.860759
      0.33099      2.13141      7.21347         0.699839     -0.417784     -0.055646
      1.53486      0.55551     11.46537        -0.009667     -0.002024      0.017672
      0.46622      3.06636      9.94780        -0.000624     -0.006496     -0.002713
      9.66027     10.40620      7.61168         0.056953      0.237376     -0.009001
      9.33477      0.35931     12.80255        -0.007133     -0.003743     -0.003063
      7.23037      9.83923      5.47453        -0.509992      0.721983      0.066735
      3.43576     10.65965      6.65288         0.024612      1.596811     -0.232551
      6.88012      8.22827      5.54403         0.005074     -0.322367     -0.008299
     10.05278      5.95199     10.95201        -0.037387      0.010524      0.006201
      7.47980      5.66382      6.38084        -0.053004      0.130985     -0.033466
      2.90710      8.03530      7.95807        -9.485821     -5.192707      9.959669
      8.70489     10.44635     11.61902        -0.002423      0.018996     -0.005144
      5.77589      3.94812      7.77711         0.020309      0.060192     -0.080147
      6.97306      9.79307      9.63321         0.004826     -0.005547      0.010839
      5.58997      1.69518     12.49749         0.003402     -0.002794      0.002589
      3.75942      8.16259      5.56291        -0.300910     -3.478386    -10.968403
      1.71237      9.96021     11.17077        -0.010883     -0.004895      0.008209
      8.49811      7.92003     10.62226        -0.007829     -0.002604      0.012210
      2.90745      5.54758      4.91736         0.012386      0.637926      0.117492
      1.19526      6.25630      8.88204         0.476381      0.194810     -0.143526
      9.16277      1.12941      4.62147         0.013946     -0.004151     -0.081750
      7.61268      3.09167      5.88009        -0.042129      0.164888     -0.040368
      7.26677      3.37356     11.35902        -0.010401     -0.009675      0.038444
      4.73043      2.57524     10.11776        -0.003380      0.002579      0.009488
     10.35636      9.61006      4.43295         0.086867     -0.239588      0.060028
      7.74340      6.01367     12.24959        -0.002919      0.016499      0.017619
      3.83880      8.20500     11.57884        -0.000525     -0.007451      0.007301
      5.13405      5.82850     11.99060         0.016540      0.008546     -0.019380
      6.16821      6.36976     14.40602         0.011490     -0.022591     -0.004519
      1.17617      7.58546      5.31719         0.872897     -0.206435      0.028992
      9.37584      7.49778      5.98197         0.126999     -0.051109     -0.067314
      5.83496      7.48859      9.97392        -0.013884     -0.022648     -0.010774
      3.06760      1.03653     11.86142        -0.013356      0.010804      0.012770
      3.30070      5.29890      7.38138        -0.090034      1.053991      0.257595
      7.52591      7.70864      8.00418         0.106475     -0.112807      0.027594
      9.58126      2.99880     10.27026        -0.000049      0.007913     -0.013039
      5.23295      9.07536      7.75177        -1.731796     -2.487629     -0.805973
      7.98742      5.15153      9.69783         0.006595      0.010731      0.010252
      1.50689      7.17944     11.33574        -0.013387      0.004723      0.023774
[...]
      7.83982     10.05783      3.97289         0.150830     -0.065460     -0.041616
      2.69819      7.56993      3.17632         0.141083      0.043217      0.447004
      8.99099      3.70463      3.77649         0.051445      0.019292     -0.030383
      6.60029      3.93777     13.61891         0.005755      0.009726     -0.000854
      9.48314     10.54787     14.19610        -0.002325      0.007596      0.001333
      2.09853      8.68049     13.49056        -0.011312      0.007672      0.021416
      3.57806      3.51400     12.35459         0.000506      0.036597      0.003142
      3.56940      7.62918      2.75371        -0.001030      0.000189     -0.108783
      9.70791      3.62042      3.12797        -0.024891     -0.008363      0.008641
      5.78312      0.10318      6.51922        -0.518419     -0.123305     -0.047399
      8.68104     10.33827     14.69871        -0.007260      0.008952     -0.001396
      1.30724      9.10541     13.86246         0.015595     -0.018588      0.001364
      5.51203      7.08177     14.37143        -0.009011      0.017863      0.008093
      3.98440      4.38379     12.16509        -0.003632     -0.017548      0.009146
     10.25068     10.40367      1.82381        -0.014953      0.038662     -0.007960
    total drift:                               -0.052975      0.051521     -0.063951

  FREE ENERGIE OF THE ION-ELECTRON SYSTEM (eV)
  free  energy   TOTEN  =      -686.34435000 eV

  energy  without entropy=     -686.34435000  energy(sigma->0) =     -686.34435000

 d Force = 0.5735648E-04[-0.701E-05, 0.122E-03]  d Energy = 0.4404577E-04 0.133E-04
 d Force = 0.5147018E+00[ 0.514E+00, 0.515E+00]  d Ewald  = 0.5147019E+00-0.151E-06

 reached required accuracy - stopping structural energy minimisation